
Gurobi 11.0.3 (linux64) logging started Wed Nov 12 20:15:08 2025

Set parameter LogFile to value "./log/train/CA_500_600_threads_0/CA_55.lp.log"
Set parameter TimeLimit to value 3600
Gurobi Optimizer version 11.0.3 build v11.0.3rc0 (linux64 - "Ubuntu 22.04.5 LTS")

CPU model: AMD Ryzen 9 9900X 12-Core Processor, instruction set [SSE2|AVX|AVX2|AVX512]
Thread count: 12 physical cores, 24 logical processors, using up to 24 threads

Optimize a model with 601 rows, 600 columns and 3098 nonzeros
Model fingerprint: 0x7f10a712
Variable types: 0 continuous, 600 integer (600 binary)
Coefficient statistics:
  Matrix range     [1e+00, 1e+00]
  Objective range  [1e+00, 1e+03]
  Bounds range     [1e+00, 1e+00]
  RHS range        [1e+00, 1e+00]
Found heuristic solution: objective 18054.990147
Presolve removed 35 rows and 66 columns
Presolve time: 0.01s
Presolved: 566 rows, 534 columns, 3049 nonzeros
Found heuristic solution: objective 23246.513610
Variable types: 0 continuous, 534 integer (534 binary)
Found heuristic solution: objective 24853.544994

Root relaxation: objective 2.977989e+04, 1270 iterations, 0.03 seconds (0.08 work units)

    Nodes    |    Current Node    |     Objective Bounds      |     Work
 Expl Unexpl |  Obj  Depth IntInf | Incumbent    BestBd   Gap | It/Node Time

     0     0 29779.8863    0  294 24853.5450 29779.8863  19.8%     -    0s
H    0     0                    25007.190264 29779.8863  19.1%     -    0s
     0     0 29697.5300    0  308 25007.1903 29697.5300  18.8%     -    0s
     0     0 29695.7112    0  310 25007.1903 29695.7112  18.7%     -    0s
     0     0 29695.7112    0  312 25007.1903 29695.7112  18.7%     -    0s
     0     0 29437.7306    0  307 25007.1903 29437.7306  17.7%     -    0s
H    0     0                    25164.295109 29437.7306  17.0%     -    0s
     0     0 29437.7306    0  312 25164.2951 29437.7306  17.0%     -    0s
     0     0 29437.7306    0  314 25164.2951 29437.7306  17.0%     -    0s
     0     0 29315.7912    0  316 25164.2951 29315.7912  16.5%     -    0s
     0     0 29315.7912    0  316 25164.2951 29315.7912  16.5%     -    0s
H    0     0                    26306.462795 29315.7912  11.4%     -    0s
     0     2 29315.7912    0  316 26306.4628 29315.7912  11.4%     -    0s
H   27    40                    26481.795386 29277.5734  10.6%   302    0s
H   28    40                    26572.180392 29277.3553  10.2%   298    0s
H   64    86                    26611.432532 29277.3553  10.0%   218    0s
H   68    86                    26832.666941 29277.3553  9.11%   211    0s
H   87   107                    26871.919081 29277.3553  8.95%   199    0s
H  140   151                    26943.911025 29277.3553  8.66%   170    0s
*  182   161              14    26979.947886 29277.3553  8.52%   154    0s
*  183   161              14    27019.386577 29277.3553  8.36%   153    0s
 11824  3239     cutoff   41      27019.3866 27953.1821  3.46%   110    5s
*24713  6347              30    27084.363935 27705.2703  2.29%  98.8    7s
 48480  6918 27179.9235   35  204 27084.3639 27481.1856  1.47%  89.8   10s

Cutting planes:
  Gomory: 2
  Clique: 27
  Zero half: 1

Explored 75441 nodes (6219246 simplex iterations) in 12.62 seconds (33.05 work units)
Thread count was 24 (of 24 available processors)

Solution count 10: 27084.4 27019.4 26979.9 ... 26306.5

Optimal solution found (tolerance 1.00e-04)
Best objective 2.708436393549e+04, best bound 2.708436393549e+04, gap 0.0000%

User-callback calls 152745, time in user-callback 0.09 sec
